Route #1: 1 30 44 8 57 36 34 60 40 46 6 51 1
Route #2: 1 50 59 19 48 2 61 42 43 29 12 1
Route #3: 1 55 63 21 23 41 54 10 26 1
Route #4: 1 32 49 3 33 22 25 20 52 1
Route #5: 1 62 7 58 24 31 1
Route #6: 1 17 47 37 1
Route #7: 1 18 4 38 27 35 1
Route #8: 1 53 11 15 28 45 1
Route #9: 1 9 16 13 56 5 1
Route #10: 1 14 39 1
cost 3415.087039107147